(set-logic BV) (define-fun origCir ((n232 Bool) (n237 Bool) (n243 Bool) (i26 Bool)) Bool (and (not (and (and n237 n243) n232)) i26)) (synth-fun skel ((n232 Bool) (n237 Bool) (n243 Bool) (i26 Bool)) Bool) (declare-var n232 Bool) (declare-var n237 Bool) (declare-var n243 Bool) (declare-var i26 Bool) (constraint (= (origCir n232 n237 n243 i26) (skel n232 n237 n243 i26))) (check-synth)
